p cnf 540 944
a 1 2 3 4 5 6 7 8 9 10 11 12 13 14 15 16 17 18 19 20 21 22 23 24 25 26 27 28 29 30 31 32 33 34 35 36 37 38 39 40 41 42 43 44 45 46 47 48 49 50 51 52 53 54 55 56 57 58 59 60 61 0
d 62 1 2 3 4 5 6 7 8 9 10 11 12 13 14 15 16 17 18 19 20 21 22 23 24 25 26 27 28 29 30 31 32 33 34 35 36 37 38 39 40 0
d 63 1 2 3 4 5 6 7 8 9 10 11 12 13 14 15 16 17 18 19 20 21 22 23 24 25 26 27 28 29 30 31 32 33 34 35 36 37 38 39 40 0
d 64 1 2 3 4 5 6 7 8 9 10 11 12 13 14 15 16 17 18 19 20 21 22 23 24 25 26 27 28 29 30 31 32 33 34 35 36 37 38 39 40 0
d 65 1 2 3 4 5 6 7 8 9 10 11 12 13 14 15 16 17 18 19 20 21 22 23 24 25 26 27 28 29 30 31 32 33 34 35 36 37 38 39 40 0
d 66 1 2 3 4 5 6 7 8 9 10 11 12 13 14 15 16 17 18 19 20 21 22 23 24 25 26 27 28 29 30 31 32 33 34 35 36 37 38 39 40 0
d 67 1 2 3 4 5 6 7 8 9 10 11 12 13 14 15 16 17 18 19 20 21 22 23 24 25 26 27 28 29 30 31 32 33 34 35 36 37 38 39 40 0
d 68 1 2 3 4 5 6 7 8 9 10 11 12 13 14 15 16 17 18 19 20 21 22 23 24 25 26 27 28 29 30 31 32 33 34 35 36 37 38 39 40 0
d 69 1 2 3 4 5 6 7 8 9 10 11 12 13 14 15 16 17 18 19 20 21 22 23 24 25 26 27 28 29 30 31 32 33 34 35 36 37 38 39 40 0
d 70 1 2 3 4 5 6 7 8 9 10 11 12 13 14 15 16 17 18 19 20 21 22 23 24 25 26 27 28 29 30 31 32 33 34 35 36 37 38 39 40 0
d 71 1 2 3 4 5 6 7 8 9 10 11 12 13 14 15 16 17 18 19 20 21 22 23 24 25 26 27 28 29 30 31 32 33 34 35 36 37 38 39 40 0
d 72 1 2 3 4 5 6 7 8 9 10 11 12 13 14 15 16 17 18 19 20 21 22 23 24 25 26 27 28 29 30 31 32 33 34 35 36 37 38 39 40 0
d 73 1 2 3 4 5 6 7 8 9 10 11 12 13 14 15 16 17 18 19 20 21 22 23 24 25 26 27 28 29 30 31 32 33 34 35 36 37 38 39 40 0
d 74 1 2 3 4 5 6 7 8 9 10 11 12 13 14 15 16 17 18 19 20 21 22 23 24 25 26 27 28 29 30 31 32 33 34 35 36 37 38 39 40 0
d 75 1 2 3 4 5 6 7 8 9 10 11 12 13 14 15 16 17 18 19 20 21 22 23 24 25 26 27 28 29 30 31 32 33 34 35 36 37 38 39 40 0
d 76 1 2 3 4 5 6 7 8 9 10 11 12 13 14 15 16 17 18 19 20 21 22 23 24 25 26 27 28 29 30 31 32 33 34 35 36 37 38 39 40 0
d 77 1 2 3 4 5 6 7 8 9 10 11 12 13 14 15 16 17 18 19 20 21 22 23 24 25 26 27 28 29 30 31 32 33 34 35 36 37 38 39 40 0
d 78 1 2 3 4 5 6 7 8 9 10 11 12 13 14 15 16 17 18 19 20 21 22 23 24 25 26 27 28 29 30 31 32 33 34 35 36 37 38 39 40 0
d 79 1 2 3 4 5 6 7 8 9 10 11 12 13 14 15 16 17 18 19 20 21 22 23 24 25 26 27 28 29 30 31 32 33 34 35 36 37 38 39 40 0
d 80 1 2 3 4 5 6 7 8 9 10 11 12 13 14 15 16 17 18 19 20 21 22 23 24 25 26 27 28 29 30 31 32 33 34 35 36 37 38 39 40 0
d 81 20 21 22 23 24 25 26 27 28 29 30 31 32 33 34 35 36 37 38 39 40 0
d 82 41 42 43 44 45 46 47 48 49 50 51 52 53 54 55 56 57 58 59 60 61 0
e 83 84 101 116 123 130 133 134 136 137 140 141 143 144 148 149 167 171 172 173 174 175 176 179 180 181 182 183 184 185 186 187 188 195 197 202 211 213 218 227 229 234 243 245 250 259 261 271 283 295 307 320 322 323 330 331 338 339 343 360 368 369 385 392 393 400 401 405 422 428 429 436 437 441 457 465 471 472 476 0
-61 -83 0
40 -83 0
-40 61 83 0
61 -84 0
-40 -84 0
40 -61 84 0
-84 -101 0
36 37 38 39 57 58 59 60 83 84 101 0
36 37 -38 39 57 58 -59 60 83 84 101 0
36 -37 38 39 57 -58 59 60 83 84 101 0
-36 -37 38 -39 -57 -58 59 -60 83 84 101 0
36 37 -38 -39 57 58 -59 -60 83 84 101 0
36 -37 38 -39 57 -58 59 -60 83 84 101 0
-36 -37 -38 -39 -57 -58 -59 -60 83 84 101 0
36 -37 -38 -39 57 -58 -59 -60 83 84 101 0
-14 33 234 320 476 0
-36 37 38 -39 -57 58 59 -60 83 84 101 0
13 -14 33 320 476 0
-83 -101 0
-36 37 38 39 -57 58 59 60 83 84 101 0
-36 37 -38 39 -57 58 -59 60 83 84 101 0
-36 37 -38 -39 -57 58 -59 -60 83 84 101 0
36 37 38 -39 57 58 59 -60 83 84 101 0
14 15 33 234 245 0
-36 -37 -38 39 -57 -58 -59 60 83 84 101 0
-12 32 53 -227 465 0
36 -37 -38 39 57 -58 -59 60 83 84 101 0
-36 -37 38 39 -57 -58 59 60 83 84 101 0
13 15 33 176 245 0
20 21 22 -23 41 42 43 -44 116 0
20 21 -22 -23 41 42 -43 -44 116 0
-20 -21 22 23 -41 -42 43 44 116 0
20 21 -22 23 41 42 -43 44 116 0
20 -21 22 23 41 -42 43 44 116 0
-20 -21 -22 23 -41 -42 -43 44 116 0
20 -21 -22 23 41 -42 -43 44 116 0
-20 21 22 23 -41 42 43 44 116 0
-20 -21 -22 -23 -41 -42 -43 -44 116 0
20 -21 -22 -23 41 -42 -43 -44 116 0
-20 21 22 -23 -41 42 43 -44 116 0
-20 21 -22 23 -41 42 -43 44 116 0
20 21 22 23 41 42 43 44 116 0
-20 -21 22 -23 -41 -42 43 -44 116 0
13 14 15 33 245 0
20 -21 22 -23 41 -42 43 -44 116 0
-20 21 -22 -23 -41 42 -43 -44 116 0
13 14 33 -243 0
24 -25 45 -46 123 0
-24 -25 -45 -46 123 0
-24 25 -45 46 123 0
24 25 45 46 123 0
13 33 -234 320 -472 0
26 -27 47 -48 130 0
-26 -27 -47 -48 130 0
-13 33 -234 -471 0
-26 27 -47 48 130 0
26 27 47 48 130 0
-12 32 -53 179 227 320 465 0
-13 33 234 320 -472 0
33 34 35 54 55 56 -101 -116 -123 -130 133 134 136 137 140 141 143 144 148 149 -167 0
33 34 35 54 55 56 81 -82 -101 -116 -123 -130 133 134 136 137 140 141 143 144 148 149 0
-49 -133 0
28 -133 0
49 -134 0
-28 -134 0
13 33 176 -243 0
33 34 -35 54 55 -56 -101 -116 -123 -130 133 134 136 137 140 141 143 144 148 149 -167 0
-50 -136 0
29 -136 0
50 -137 0
-29 -137 0
33 34 -35 54 55 -56 81 -82 -101 -116 -123 -130 133 134 136 137 140 141 143 144 148 149 0
33 -34 35 54 -55 56 -101 -116 -123 -130 133 134 136 137 140 141 143 144 148 149 -167 0
-51 -140 0
30 -140 0
15 33 176 234 245 0
51 -141 0
-30 -141 0
33 -34 35 54 -55 56 81 -82 -101 -116 -123 -130 133 134 136 137 140 141 143 144 148 149 0
-52 -143 0
31 -143 0
12 32 -53 -227 320 465 0
52 -144 0
-31 -144 0
33 176 234 -243 0
33 -34 -35 54 -55 -56 -101 -116 -123 -130 133 134 136 137 140 141 143 144 148 149 -167 0
33 -34 -35 54 -55 -56 81 -82 -101 -116 -123 -130 133 134 136 137 140 141 143 144 148 149 0
-33 34 35 -54 55 56 -101 -116 -123 -130 133 134 136 137 140 141 143 144 148 149 -167 0
-53 -148 0
32 -148 0
13 14 33 -476 0
53 -149 0
-32 -149 0
-33 34 35 -54 55 56 81 -82 -101 -116 -123 -130 133 134 136 137 140 141 143 144 148 149 0
-33 34 -35 -54 55 -56 81 -82 -101 -116 -123 -130 133 134 136 137 140 141 143 144 148 149 0
-33 34 -35 -54 55 -56 -101 -116 -123 -130 133 134 136 137 140 141 143 144 148 149 -167 0
-33 -34 35 -54 -55 56 81 -82 -101 -116 -123 -130 133 134 136 137 140 141 143 144 148 149 0
-33 -34 35 -54 -55 56 -101 -116 -123 -130 133 134 136 137 140 141 143 144 148 149 -167 0
-33 -34 -35 -54 -55 -56 -101 -116 -123 -130 133 134 136 137 140 141 143 144 148 149 -167 0
-33 -34 -35 -54 -55 -56 81 -82 -101 -116 -123 -130 133 134 136 137 140 141 143 144 148 149 0
-82 -167 0
81 -167 0
-81 82 167 0
20 -322 0
-20 -40 77 78 -79 80 -307 320 0
40 61 -171 261 322 0
39 -171 0
20 -171 0
-20 -39 171 0
38 -172 0
20 -172 0
-20 -38 172 0
37 -173 0
20 -173 0
-20 -37 173 0
36 -174 0
20 -174 0
-20 -36 174 0
35 -175 0
20 -175 0
-20 -35 175 0
34 -176 0
20 -176 0
-20 -34 176 0
14 20 -476 0
14 -33 -234 320 476 0
14 33 234 -243 0
-12 -20 -32 234 0
-12 32 -53 -229 320 465 0
31 -179 0
20 -179 0
-20 -31 179 0
30 -180 0
20 -180 0
-20 -30 180 0
29 -181 0
20 -181 0
-20 -29 181 0
28 -182 0
20 -182 0
-20 -28 182 0
27 -183 0
20 -183 0
-20 -27 183 0
26 -184 0
20 -184 0
-20 -26 184 0
25 -185 0
20 -185 0
-20 -25 185 0
24 -186 0
20 -186 0
-20 -24 186 0
23 -187 0
20 -187 0
-20 -23 187 0
22 -188 0
20 -188 0
-20 -22 188 0
-1 20 42 -368 0
-21 42 -320 -368 0
-1 21 -41 -42 320 368 0
1 2 -369 0
-1 -3 -21 -188 195 0
20 -195 0
1 3 188 197 0
-1 -2 -20 -21 -197 0
-1 21 42 320 -368 0
-2 -188 -197 0
3 20 197 0
2 188 -195 0
-1 -2 -3 -20 -21 195 0
1 -2 369 0
1 2 3 197 0
-2 -3 -188 195 0
12 32 53 179 227 465 0
2 3 188 197 0
3 -195 0
1 2 -195 0
-4 -186 -187 197 -393 0
4 -186 187 195 -393 0
-4 -45 186 -195 393 0
-3 -197 0
21 -41 42 -320 368 0
-2 20 369 0
4 -45 186 187 195 393 0
-4 -45 186 -187 197 393 0
4 -45 186 -197 393 0
-4 -186 -195 -393 0
-4 45 -186 -187 197 392 0
-4 -186 -197 320 -392 0
-4 186 -187 197 -392 0
4 45 -186 -197 392 0
-4 -45 -186 -197 320 393 0
4 186 -202 0
4 45 -186 187 195 392 0
4 -197 -202 0
-4 -186 202 0
-4 -186 187 195 320 -392 0
-4 186 187 195 320 -393 0
5 -6 185 320 405 0
-5 -185 -202 -401 0
-4 45 186 -197 320 392 0
-5 -7 -184 -185 211 0
6 185 202 -211 0
-5 -6 -7 -202 211 0
-5 185 202 320 -401 0
5 -185 202 -401 0
6 185 202 -405 0
184 185 202 -211 0
-5 -6 -185 -213 0
5 -6 202 320 405 0
-5 -184 -185 -213 0
-7 -184 -185 -202 211 0
5 7 184 185 213 0
-6 -184 -213 0
5 184 202 -211 0
6 184 -211 0
-184 -185 -202 -213 0
4 186 -197 -392 0
-6 185 202 320 405 0
-6 -7 -184 211 0
5 6 202 -405 0
6 7 184 213 0
7 -211 0
7 184 185 202 213 0
6 7 185 202 213 0
-8 -182 -183 213 -429 0
8 -182 183 211 -429 0
-8 -49 182 -211 429 0
-7 -213 0
5 7 184 202 213 0
5 6 202 -211 0
8 -49 182 183 211 429 0
-8 -49 182 -183 213 429 0
8 -49 182 -213 429 0
-8 -182 -211 -429 0
-8 49 -182 -183 213 428 0
-8 -182 -213 320 -428 0
-8 182 -183 213 -428 0
8 49 -182 -213 428 0
-8 -49 -182 -213 320 429 0
8 182 -218 0
8 49 -182 183 211 428 0
8 -213 -218 0
-8 -182 218 0
-8 -182 183 211 320 -428 0
-8 182 183 211 320 -429 0
9 -10 181 320 441 0
-9 -181 -218 -437 0
-8 49 182 -213 320 428 0
-9 -11 -180 -181 227 0
10 181 218 -227 0
-9 -10 -11 -218 227 0
-9 181 218 320 -437 0
9 -181 218 -437 0
10 181 218 -441 0
180 181 218 -227 0
-9 -10 -181 -229 0
9 -10 218 320 441 0
-9 -180 -181 -229 0
-11 -180 -181 -218 227 0
9 11 180 181 229 0
-10 -180 -229 0
9 180 218 -227 0
10 180 -227 0
-180 -181 -218 -229 0
8 182 -213 -428 0
-10 181 218 320 441 0
-10 -11 -180 227 0
9 10 218 -441 0
10 11 180 229 0
11 -227 0
11 180 181 218 229 0
10 11 181 218 229 0
-32 -53 -320 465 0
-20 -32 -227 229 234 0
32 179 227 -234 0
-11 -229 0
9 11 180 218 229 0
9 10 218 -227 0
32 53 -320 465 0
12 20 53 465 0
12 32 -234 0
12 -32 53 -179 229 320 465 0
12 -20 -32 -53 -229 465 0
-12 20 -53 465 0
12 -229 -234 0
12 -20 -32 53 -227 320 465 0
12 32 -53 -179 229 320 465 0
-13 20 -472 0
-33 -320 -472 0
-13 -14 -20 -33 -476 0
15 20 245 0
-13 -14 -15 -234 243 0
13 33 234 -471 0
13 -33 -234 320 -471 0
-14 20 476 0
14 33 234 -476 0
-13 14 -20 -33 320 476 0
13 -14 234 320 476 0
-13 -15 -33 -176 243 0
13 -20 -33 234 -472 0
-14 -176 -245 0
13 176 234 -243 0
14 176 -243 0
-15 -33 -176 -234 243 0
20 -234 0
-14 -15 -176 243 0
13 14 234 -476 0
14 15 176 245 0
15 -243 0
33 -320 -471 0
-16 -174 -175 245 -331 0
16 -174 175 243 -331 0
-16 -57 174 -243 331 0
-15 -245 0
13 15 176 234 245 0
13 14 234 -243 0
16 -57 174 175 243 331 0
-16 -57 174 -175 245 331 0
16 -57 174 -245 331 0
-16 -174 -243 -331 0
-16 57 -174 -175 245 330 0
-16 -174 -245 320 -330 0
-16 174 -175 245 -330 0
16 57 -174 -245 330 0
-16 -57 -174 -245 320 331 0
16 174 -250 0
16 57 -174 175 243 330 0
16 -245 -250 0
-16 -174 250 0
-16 -174 175 243 320 -330 0
-16 174 175 243 320 -331 0
17 -18 173 320 343 0
-17 -173 -250 -339 0
-16 57 174 -245 320 330 0
-17 -19 -172 -173 259 0
18 173 250 -259 0
-17 -18 -19 -250 259 0
-17 173 250 320 -339 0
17 -173 250 -339 0
18 173 250 -343 0
172 173 250 -259 0
-17 -18 -173 -261 0
17 -18 250 320 343 0
-17 -172 -173 -261 0
-19 -172 -173 -250 259 0
17 19 172 173 261 0
-18 -172 -261 0
17 172 250 -259 0
18 172 -259 0
-172 -173 -250 -261 0
16 174 -245 -330 0
-18 173 250 320 343 0
-18 -19 -172 259 0
17 18 250 -343 0
18 19 172 261 0
19 -259 0
19 172 173 250 261 0
18 19 173 250 261 0
40 171 259 -322 0
-20 -40 171 259 320 -323 0
-40 -61 -259 323 0
-19 -261 0
17 19 172 250 261 0
17 18 250 -259 0
40 -320 0
-40 -61 -171 261 323 0
20 -259 0
-20 -40 61 171 259 320 322 0
40 -261 -322 0
17 172 173 -259 0
-40 -171 261 -322 0
40 -61 171 259 323 0
-18 -173 -250 -343 0
-20 -40 -261 320 -323 0
32 -229 -234 0
-18 -19 -173 -250 259 0
62 63 64 271 0
-62 63 64 -271 0
-17 -19 -172 -250 259 0
-62 -63 64 271 0
62 -63 64 -271 0
-17 -18 -250 -343 0
62 63 -64 -271 0
-18 -173 -250 -261 0
-17 -18 -250 -261 0
-62 63 -64 271 0
62 -63 -64 271 0
17 173 -250 320 -339 0
17 58 173 -250 320 338 0
18 -173 -250 320 343 0
17 -58 -173 -250 320 339 0
-62 -63 -64 -271 0
-17 18 -250 320 343 0
17 -173 -250 320 -338 0
-65 -66 67 68 271 -283 0
65 66 67 68 271 -283 0
17 18 173 -259 0
-65 -66 -67 -68 271 -283 0
-65 66 67 68 -271 -283 0
65 66 -67 -68 -271 283 0
65 66 -67 -68 271 -283 0
-65 66 -67 -68 271 283 0
-65 66 -67 68 -271 283 0
-65 -66 -67 68 271 283 0
65 66 -67 68 271 283 0
-65 -66 67 -68 -271 -283 0
-65 66 -67 -68 -271 -283 0
-65 66 67 -68 271 -283 0
-65 -66 -67 -68 -271 283 0
65 -66 -67 68 271 -283 0
65 -66 67 68 -271 -283 0
-65 66 -67 68 271 -283 0
65 -66 -67 68 -271 283 0
65 -66 67 -68 271 -283 0
-65 -66 67 68 -271 283 0
65 -66 -67 -68 271 283 0
65 -66 -67 -68 -271 -283 0
-65 -66 67 -68 271 283 0
-65 66 67 68 271 283 0
-65 66 67 -68 -271 283 0
65 66 -67 68 -271 -283 0
65 -66 67 68 271 283 0
65 -66 67 -68 -271 283 0
17 18 19 173 261 0
65 66 67 68 -271 283 0
-65 -66 -67 68 -271 -283 0
-16 174 -245 320 -331 0
65 66 67 -68 271 283 0
65 66 67 -68 -271 -283 0
17 18 173 -343 0
-69 -70 71 72 283 -295 0
69 70 71 72 283 -295 0
-16 57 -174 -243 330 0
-69 -70 -71 -72 283 -295 0
-69 70 71 72 -283 -295 0
69 70 -71 -72 -283 295 0
69 70 -71 -72 283 -295 0
-69 70 -71 -72 283 295 0
-69 70 -71 72 -283 295 0
-69 -70 -71 72 283 295 0
69 70 -71 72 283 295 0
-69 -70 71 -72 -283 -295 0
-69 70 -71 -72 -283 -295 0
-69 70 71 -72 283 -295 0
-69 -70 -71 -72 -283 295 0
69 -70 -71 72 283 -295 0
69 -70 71 72 -283 -295 0
-69 70 -71 72 283 -295 0
69 -70 -71 72 -283 295 0
69 -70 71 -72 283 -295 0
-69 -70 71 72 -283 295 0
69 -70 -71 -72 283 295 0
69 -70 -71 -72 -283 -295 0
-69 -70 71 -72 283 295 0
-69 70 71 72 283 295 0
-69 70 71 -72 -283 295 0
69 70 -71 72 -283 -295 0
69 -70 71 72 283 295 0
69 -70 71 -72 -283 295 0
174 -245 -250 0
69 70 71 72 -283 295 0
-69 -70 -71 72 -283 -295 0
-16 -243 250 0
69 70 71 -72 283 295 0
69 70 71 -72 -283 -295 0
-16 174 -243 -330 0
-73 -74 75 76 295 -307 0
73 74 75 76 295 -307 0
16 -57 -174 -243 245 320 331 0
-73 -74 -75 -76 295 -307 0
-73 74 75 76 -295 -307 0
73 74 -75 -76 -295 307 0
73 74 -75 -76 295 -307 0
-73 74 -75 -76 295 307 0
-73 74 -75 76 -295 307 0
-73 -74 -75 76 295 307 0
73 74 -75 76 295 307 0
-73 -74 75 -76 -295 -307 0
-73 74 -75 -76 -295 -307 0
-73 74 75 -76 295 -307 0
-73 -74 -75 -76 -295 307 0
73 -74 -75 76 295 -307 0
73 -74 75 76 -295 -307 0
-73 74 -75 76 295 -307 0
73 -74 -75 76 -295 307 0
73 -74 75 -76 295 -307 0
-73 -74 75 76 -295 307 0
73 -74 -75 -76 295 307 0
73 -74 -75 -76 -295 -307 0
-73 -74 75 -76 295 307 0
-73 74 75 76 295 307 0
-73 74 75 -76 -295 307 0
73 74 -75 76 -295 -307 0
73 -74 75 76 295 307 0
73 -74 75 -76 -295 307 0
16 174 -243 245 320 -331 0
73 74 75 76 -295 307 0
-73 -74 -75 76 -295 -307 0
16 57 174 -243 245 320 330 0
73 74 75 -76 295 307 0
73 74 75 -76 -295 -307 0
16 -174 -243 245 320 -330 0
-20 -40 -77 -78 -79 -80 307 320 0
-20 -40 77 78 -79 -80 307 320 0
-14 -33 -234 -245 0
-20 -40 -77 78 -79 80 307 320 0
-20 -40 -77 78 -79 -80 -307 320 0
77 78 -79 -80 -307 -320 0
-20 -40 77 -78 -79 80 307 320 0
-77 78 -79 -80 307 -320 0
-77 78 -79 80 -307 -320 0
-77 -78 -79 80 307 -320 0
77 78 -79 80 307 -320 0
-20 -40 77 78 79 80 307 320 0
-20 -40 -77 -78 -79 80 -307 320 0
-20 -40 77 -78 79 80 -307 320 0
-77 -78 -79 -80 -307 -320 0
-20 -40 77 -78 79 -80 307 320 0
-20 -40 77 -78 -79 -80 -307 320 0
-20 -40 -77 78 79 -80 307 320 0
77 -78 -79 80 -307 -320 0
-20 -40 -77 -78 79 80 307 320 0
-77 -78 79 80 -307 -320 0
77 -78 -79 -80 307 -320 0
-20 -40 61 -261 320 322 0
-77 -78 79 -80 307 -320 0
-77 78 79 80 307 -320 0
-77 78 79 -80 -307 -320 0
-20 -40 77 78 79 -80 -307 320 0
77 -78 79 80 307 -320 0
77 -78 79 -80 -307 -320 0
20 -243 0
77 78 79 80 -307 -320 0
-20 -40 -77 -78 79 -80 -307 320 0
-13 -33 -176 -245 0
-12 -20 -32 53 179 227 320 465 0
-14 -15 -33 -234 243 0
-13 -15 -176 -234 243 0
20 -61 323 0
77 78 79 -80 307 -320 0
-13 -20 -33 234 320 -471 0
40 -61 -261 323 0
-40 -259 261 -322 0
-13 -14 -234 -476 0
-61 -322 0
-320 -322 0
40 -171 261 -323 0
61 -323 0
20 -320 0
-61 -320 323 0
-323 -360 0
59 60 171 172 -320 323 330 331 338 339 360 0
-13 14 -234 320 476 0
16 -174 -175 245 320 -330 0
174 175 243 -250 0
16 174 175 243 -330 0
174 -320 -330 0
-174 -175 245 250 0
-16 -57 -174 175 243 320 331 0
-57 174 -320 331 0
-174 -243 245 250 0
-16 -175 245 250 0
-174 -320 -331 0
16 174 -175 245 320 -331 0
-16 57 174 175 243 320 330 0
-14 -33 -234 -476 0
-57 -330 0
57 -174 -320 330 0
16 57 174 -175 245 320 330 0
57 -331 0
16 -174 -245 -331 0
16 -57 -174 -175 245 320 331 0
-331 -360 0
59 -60 -171 172 -320 323 330 331 338 339 360 0
-17 58 -173 -250 338 0
-17 -58 -173 250 320 339 0
17 18 19 250 261 0
173 -320 -338 0
-17 -18 -173 -343 0
17 173 250 -338 0
-58 173 -320 339 0
-17 -18 -19 -173 259 0
-17 -58 173 -250 339 0
-173 -320 -339 0
-17 173 -250 -338 0
17 58 -173 250 338 0
20 -53 -227 229 465 0
-58 -338 0
58 -173 -320 338 0
17 -58 173 250 339 0
58 -339 0
-17 -173 250 320 -338 0
-17 -172 -250 -261 0
-339 -360 0
59 60 -171 172 259 261 320 322 323 330 331 338 339 343 360 0
59 -60 171 172 259 261 320 322 323 330 331 338 339 343 360 0
-12 -227 229 234 0
16 175 243 -250 0
-17 18 -173 320 343 0
-320 -343 0
-12 32 53 -179 229 465 0
-17 58 173 250 320 338 0
-59 60 171 -172 -320 323 330 331 338 339 360 0
-10 -11 -181 -218 227 0
-59 60 -171 -172 259 261 320 322 323 330 331 338 339 343 360 0
59 -60 -171 -172 -261 322 323 330 331 338 339 -343 360 0
-59 -60 171 -172 259 261 320 322 323 330 331 338 339 343 360 0
59 60 171 172 -261 322 323 330 331 338 339 343 360 0
-59 -60 -171 -172 -259 322 323 330 331 338 339 343 360 0
59 -60 171 -172 259 261 322 323 330 331 338 339 -343 360 0
-59 -60 -171 -172 -261 322 323 330 331 338 339 343 360 0
-59 60 -171 172 259 261 322 323 330 331 338 339 -343 360 0
-59 60 171 172 -261 322 323 330 331 338 339 -343 360 0
-59 60 171 -172 -261 322 323 330 331 338 339 343 360 0
-322 -360 0
59 60 171 172 -259 322 323 330 331 338 339 343 360 0
59 60 171 -172 -261 322 323 330 331 338 339 -343 360 0
-330 -360 0
59 -60 -171 172 -259 322 323 330 331 338 339 343 360 0
-59 -60 -171 172 -259 322 323 330 331 338 339 -343 360 0
-338 -360 0
59 -60 -171 172 -261 322 323 330 331 338 339 343 360 0
-59 60 171 172 -259 322 323 330 331 338 339 -343 360 0
59 60 -171 -172 259 261 322 323 330 331 338 339 -343 360 0
-59 60 171 -172 -259 322 323 330 331 338 339 343 360 0
-59 -60 -171 -172 -320 323 330 331 338 339 360 0
59 -60 -171 -172 -259 322 323 330 331 338 339 -343 360 0
59 60 171 -172 -259 322 323 330 331 338 339 -343 360 0
-12 -32 -53 -179 229 465 0
-10 -181 -218 -441 0
9 180 181 -227 0
-59 -60 171 172 259 261 322 323 330 331 338 339 -343 360 0
10 -181 -218 320 441 0
-10 -181 -218 -229 0
-59 -60 -171 172 -261 322 323 330 331 338 339 -343 360 0
-9 -10 -218 -441 0
-13 -14 -234 -245 0
-9 -11 -180 -218 227 0
-21 -41 -42 -320 368 0
1 20 -42 -368 0
2 20 -369 0
1 -20 -21 42 -368 0
1 20 -41 42 368 0
-9 10 -218 320 441 0
-1 -20 -21 -42 320 -368 0
12 32 53 -229 465 0
9 50 181 -218 320 436 0
1 -20 -21 -41 -42 368 0
-1 20 -41 -42 368 0
9 181 -218 320 -437 0
-1 -20 -21 -41 42 320 368 0
9 10 11 181 229 0
9 -50 -181 -218 320 437 0
-9 -10 -218 -229 0
9 10 181 -227 0
9 -181 -218 320 -436 0
9 10 181 -441 0
182 -213 -218 0
41 -368 0
-8 182 -213 320 -429 0
-1 -21 -188 -197 0
-1 2 -20 -21 369 0
1 188 -195 0
-1 -2 -20 -21 -369 0
-43 188 -320 -385 0
-43 -188 320 -369 -385 0
43 -44 -187 188 -195 369 385 0
43 44 -187 -188 195 197 320 -369 385 0
-43 44 -187 -188 195 197 320 369 385 0
-43 -44 -187 188 -197 320 -369 385 0
43 -44 -187 188 -320 385 0
43 44 187 188 -195 369 385 0
43 44 187 -188 -195 320 -369 385 0
43 -188 -320 -385 0
43 -44 -187 188 -197 369 385 0
43 -44 -187 -188 -195 320 -369 385 0
-43 -44 187 188 195 197 320 -369 385 0
-43 188 369 -385 0
-44 187 -195 -385 0
-44 -187 195 197 320 -385 0
44 -187 -197 -385 0
-44 187 -320 -385 0
43 -44 187 -188 195 197 320 -369 385 0
-43 44 -187 188 195 197 320 -369 385 0
43 44 -187 188 195 197 320 369 385 0
44 187 195 197 320 -385 0
43 188 320 -369 -385 0
43 -44 187 188 195 197 320 369 385 0
-43 44 187 -188 -320 385 0
43 -44 -187 -188 -197 320 -369 385 0
-44 187 -197 -385 0
-43 -44 -187 -188 -320 385 0
44 -187 -195 -385 0
-43 44 187 188 -197 320 -369 385 0
43 44 187 188 -320 385 0
44 -187 -320 -385 0
43 -188 369 -385 0
43 44 187 188 -197 369 385 0
-43 44 187 188 -195 320 -369 385 0
385 -422 0
47 48 183 184 -320 -368 -385 392 393 400 401 422 0
-43 44 187 -188 -195 369 385 0
4 -186 -187 197 320 -392 0
186 187 195 -202 0
4 186 187 195 -392 0
186 -320 -392 0
-186 -187 197 202 0
-4 -45 -186 187 195 320 393 0
-45 186 -320 393 0
-186 -195 197 202 0
-43 -44 -187 -188 -195 369 385 0
-4 -187 197 202 0
-186 -320 -393 0
-43 44 187 -188 -197 369 385 0
4 186 -187 197 320 -393 0
-4 45 186 187 195 320 392 0
-43 -44 -187 -188 -197 369 385 0
-45 -392 0
45 -186 -320 392 0
4 45 186 -187 197 320 392 0
45 -393 0
4 -186 -197 -393 0
4 -45 -186 -187 197 320 393 0
-393 -422 0
47 -48 -183 184 -320 -368 -385 392 393 400 401 422 0
-8 49 -182 -211 213 428 0
-5 46 -185 -202 400 0
-5 -46 -185 202 320 401 0
5 6 7 202 213 0
185 -320 -400 0
-5 -6 -185 -405 0
5 185 202 -400 0
-46 185 -320 401 0
-5 -6 -7 -185 211 0
-8 -211 213 218 0
-5 -46 185 -202 401 0
-185 -320 -401 0
8 182 -211 213 320 -429 0
-5 185 -202 -400 0
5 46 -185 202 400 0
8 -182 -211 213 320 -428 0
-46 -400 0
46 -185 -320 400 0
5 -46 185 202 401 0
46 -401 0
-5 -185 202 320 -400 0
-5 -184 -202 -213 0
-401 -422 0
47 48 -183 184 211 213 320 -368 -385 392 393 400 401 405 422 0
8 49 182 -211 213 320 428 0
8 -49 -182 -211 213 320 429 0
47 -48 183 184 211 213 320 -368 -385 392 393 400 401 405 422 0
-6 -185 -202 -405 0
4 187 195 -202 0
-5 6 -185 320 405 0
-6 -185 -202 -213 0
-320 -405 0
-6 -7 -185 -202 211 0
-5 46 185 202 320 400 0
-47 48 183 -184 -320 -368 -385 392 393 400 401 422 0
-5 6 -202 320 405 0
-47 48 -183 -184 211 213 320 -368 -385 392 393 400 401 405 422 0
-8 182 -211 213 -428 0
47 -48 -183 -184 -213 -368 -385 392 393 400 401 -405 422 0
-47 -48 183 -184 211 213 320 -368 -385 392 393 400 401 405 422 0
47 48 183 184 -213 -368 -385 392 393 400 401 405 422 0
-47 -48 -183 -184 -211 -368 -385 392 393 400 401 405 422 0
47 -48 183 -184 211 213 -368 -385 392 393 400 401 -405 422 0
-47 -48 -183 -184 -213 -368 -385 392 393 400 401 405 422 0
-47 48 -183 184 211 213 -368 -385 392 393 400 401 -405 422 0
-47 48 183 184 -213 -368 -385 392 393 400 401 -405 422 0
-47 48 183 -184 -213 -368 -385 392 393 400 401 405 422 0
368 -422 0
47 48 183 184 -211 -368 -385 392 393 400 401 405 422 0
47 48 183 -184 -213 -368 -385 392 393 400 401 -405 422 0
-392 -422 0
47 -48 -183 184 -211 -368 -385 392 393 400 401 405 422 0
-47 -48 -183 184 -211 -368 -385 392 393 400 401 -405 422 0
-400 -422 0
47 -48 -183 184 -213 -368 -385 392 393 400 401 405 422 0
-47 48 183 184 -211 -368 -385 392 393 400 401 -405 422 0
47 48 -183 -184 211 213 -368 -385 392 393 400 401 -405 422 0
-47 48 183 -184 -211 -368 -385 392 393 400 401 405 422 0
-47 -48 -183 -184 -320 -368 -385 392 393 400 401 422 0
47 -48 -183 -184 -211 -368 -385 392 393 400 401 -405 422 0
-5 -7 -184 -202 211 0
47 48 183 -184 -211 -368 -385 392 393 400 401 -405 422 0
6 -185 -202 320 405 0
-5 -6 -202 -213 0
-5 -6 -202 -405 0
-47 -48 183 184 211 213 -368 -385 392 393 400 401 -405 422 0
5 185 -202 320 -401 0
5 46 185 -202 320 400 0
-47 -48 -183 184 -213 -368 -385 392 393 400 401 -405 422 0
5 -46 -185 -202 320 401 0
-43 -44 187 -188 195 197 320 369 385 0
5 -185 -202 320 -400 0
5 184 185 -211 0
8 -182 -183 213 320 -428 0
182 183 211 -218 0
8 182 183 211 -428 0
182 -320 -428 0
-182 -183 213 218 0
-8 -49 -182 183 211 320 429 0
-49 182 -320 429 0
-182 -211 213 218 0
5 6 7 185 213 0
-8 -183 213 218 0
-182 -320 -429 0
5 6 185 -405 0
8 182 -183 213 320 -429 0
-8 49 182 183 211 320 428 0
5 6 185 -211 0
-49 -428 0
49 -182 -320 428 0
8 49 182 -183 213 320 428 0
49 -429 0
8 -182 -213 -429 0
8 -49 -182 -183 213 320 429 0
-429 -457 0
51 52 179 180 -320 428 429 436 437 457 0
186 -197 -202 0
-9 50 -181 -218 436 0
-9 -50 -181 218 320 437 0
9 10 11 218 229 0
181 -320 -436 0
-9 -10 -181 -441 0
9 181 218 -436 0
-50 181 -320 437 0
-9 -10 -11 -181 227 0
-4 186 -195 197 -392 0
-9 -50 181 -218 437 0
-181 -320 -437 0
-4 45 -186 -195 197 392 0
-9 181 -218 -436 0
9 50 -181 218 436 0
-4 -195 197 202 0
-50 -436 0
50 -181 -320 436 0
9 -50 181 218 437 0
50 -437 0
-9 -181 218 320 -436 0
-9 -180 -218 -229 0
-437 -457 0
51 -52 -179 180 -320 428 429 436 437 457 0
4 -186 -195 197 320 -392 0
4 186 -195 197 320 -393 0
51 52 -179 180 227 229 320 428 429 436 437 441 457 0
4 45 186 -195 197 320 392 0
8 183 211 -218 0
-9 10 -181 320 441 0
1 21 -41 42 368 0
-320 -441 0
1 21 -42 -368 0
-9 50 181 218 320 436 0
-51 -52 -179 180 -229 428 429 436 437 -441 457 0
-2 21 369 0
-51 -52 -179 -180 -320 428 429 436 437 457 0
-4 186 -197 320 -393 0
51 52 179 -180 -229 428 429 436 437 -441 457 0
-51 52 -179 -180 227 229 320 428 429 436 437 441 457 0
51 -52 -179 180 -227 428 429 436 437 441 457 0
-51 52 179 -180 -227 428 429 436 437 441 457 0
51 52 -179 -180 227 229 428 429 436 437 -441 457 0
-51 52 179 -180 -229 428 429 436 437 441 457 0
51 -52 -179 -180 -229 428 429 436 437 -441 457 0
-51 -52 -179 180 -227 428 429 436 437 -441 457 0
-51 -52 -179 -180 -227 428 429 436 437 441 457 0
-51 -52 -179 -180 -229 428 429 436 437 441 457 0
51 -52 179 180 227 229 320 428 429 436 437 441 457 0
51 -52 -179 -180 -227 428 429 436 437 -441 457 0
-428 -457 0
51 52 179 180 -227 428 429 436 437 441 457 0
-51 52 179 180 -227 428 429 436 437 -441 457 0
-436 -457 0
51 52 179 180 -229 428 429 436 437 441 457 0
-51 -52 179 180 227 229 428 429 436 437 -441 457 0
51 -52 -179 180 -229 428 429 436 437 441 457 0
-51 -52 179 -180 227 229 320 428 429 436 437 441 457 0
-51 52 179 -180 -320 428 429 436 437 457 0
51 52 179 -180 -227 428 429 436 437 -441 457 0
2 3 21 197 0
51 -52 179 -180 227 229 428 429 436 437 -441 457 0
21 -42 -320 -368 0
2 21 -195 0
2 21 -369 0
-51 52 -179 180 227 229 428 429 436 437 -441 457 0
3 21 188 197 0
4 -45 -186 -195 197 320 393 0
21 188 -195 0
-51 52 179 180 -229 428 429 436 437 -441 457 0
-32 -179 229 234 0
13 20 -471 0
40 -259 261 -323 0
-12 -179 229 234 0
-12 -20 -32 53 -229 320 465 0
40 61 -259 261 322 0
-12 20 -227 465 0
12 -20 -32 -53 179 227 465 0
-12 -32 -53 -227 229 465 0
13 14 15 234 245 0
-13 -14 -15 -20 -33 243 0
-13 -14 -20 -33 -245 0
-33 -176 -234 -245 0
-54 -471 0
54 -472 0
-13 -33 -234 -472 0
-13 -176 -234 -245 0
55 56 -167 175 176 -320 -360 -422 -457 -465 471 472 0
55 -56 -167 -175 176 -320 -360 -422 -457 -465 471 472 0
12 179 227 -234 0
-21 -32 -33 -40 -81 -171 -172 -173 -174 -175 -176 -179 -180 -181 -182 -183 -184 -185 -186 -187 -188 0
-320 -476 0
-55 -56 -167 -175 176 -245 -360 -422 -457 -465 471 472 -476 0
55 56 -167 175 -176 -243 -360 -422 -457 -465 471 472 -476 0
-55 -56 -167 -175 -176 -320 -360 -422 -457 -465 471 472 0
55 56 -167 -175 176 243 245 320 -360 -422 -457 -465 471 472 476 0
55 56 -167 175 -176 -245 -360 -422 -457 -465 471 472 -476 0
-55 56 -167 -175 -176 243 245 320 -360 -422 -457 -465 471 472 476 0
55 -56 -167 -175 176 -243 -360 -422 -457 -465 471 472 476 0
-55 56 -167 175 -176 -243 -360 -422 -457 -465 471 472 476 0
-55 -56 -167 175 -176 243 245 320 -360 -422 -457 -465 471 472 476 0
55 56 -167 -175 -176 243 245 -360 -422 -457 -465 471 472 -476 0
-55 56 -167 175 -176 -245 -360 -422 -457 -465 471 472 476 0
-55 -56 -167 -175 -176 -243 -360 -422 -457 -465 471 472 476 0
-55 -56 -167 -175 176 -243 -360 -422 -457 -465 471 472 -476 0
55 -56 -167 175 176 243 245 320 -360 -422 -457 -465 471 472 476 0
-55 -56 -167 -175 -176 -245 -360 -422 -457 -465 471 472 476 0
55 56 -167 175 176 -243 -360 -422 -457 -465 471 472 476 0
-55 -56 -167 175 176 243 245 -360 -422 -457 -465 471 472 -476 0
55 -56 -167 -175 -176 -243 -360 -422 -457 -465 471 472 -476 0
55 56 -167 175 176 -245 -360 -422 -457 -465 471 472 476 0
55 -56 -167 -175 -176 -245 -360 -422 -457 -465 471 472 -476 0
55 -56 -167 -175 176 -245 -360 -422 -457 -465 471 472 476 0
-55 56 -167 175 176 -245 -360 -422 -457 -465 471 472 -476 0
-55 56 -167 -175 176 243 245 -360 -422 -457 -465 471 472 -476 0
-55 56 -167 175 -176 -320 -360 -422 -457 -465 471 472 0
-55 56 -167 175 176 -243 -360 -422 -457 -465 471 472 -476 0
55 -56 -167 175 -176 243 245 -360 -422 -457 -465 471 472 -476 0
-20 -40 -77 78 79 80 -307 320 0
20 21 22 23 24 25 26 27 28 29 30 31 32 33 34 35 36 37 38 39 40 81 0
